wr=206;
nProviders=20;

cost_worker=[ 151 128 184 182 133 158 199 202 235 205 241 198 161 143 236 122 241 216 126 235 ];
available_workers=[ 19 10 24 35 22 11 17 40 22 35 13 26 31 38 26 19 37 36 20 37 ];
cost_contract=[ 1878 2957 817 1966 2729 2489 995 2220 2620 2111 950 2885 1259 897 2727 2763 2017 975 1295 2878 ];
country=[ 5 1 6 7 5 7 5 5 1 6 6 4 3 5 7 2 4 6 7 1 ];
cost_1=5;
cost_2=7;
cost_3=300;
